>> Start of run:   1-NOV-2022  13:28:40

reinit: Reading from standard input
reinit: Dumped input in INPUT_TMP.24664
************************** Dump of input data file ****************************
#       Parallel options            #
#    BlockSize   32                 #
#    ProcessorY  16                 #
#   DiagScale   1                   #
#   ParallelOverK      false        #
#       General Options             #
  UseSaveData	     False	        #
  WriteCoorInital    false          #
  WriteCoorStep      false          #
  WriteForces	     false          #
  WriteKpoints	     false          #
  WriteEigenvalues   false          #
  WriteKbands	     false          #
  WriteBands	     false          #
  WriteMullikenPop   0              #
  WriteDM	     true               #
  WriteCoorXmol	    false           #
  WriteCoorCerius    false          #
  WriteMDXmol	     false          #
  WriteMDhistory     false          #
  WriteDenchar       true           #
  SaveRHO            true           #
#  WriteDenchar       true          #
#  COOP.Write         true          #
#  SaveElectrostaticPotential true  #
SystemLabel      Graphene
SystemName       Graphene
NumberOfAtoms    2
NumberOfSpecies  1
%block ChemicalSpeciesLabel
1  6  C-gga
%endblock ChemicalSpeciesLabel
#    DFT   Calcule Control
PAO.BasisSize     SZP
PAO.EnergyShift   0.02 Ry
XC.functional     GGA
XC.authors        PBE
MaxSCFIterations  150
MeshCutoff        250  Ry
DM.MixingWeight   0.1
DM.Tolerance      1.000E-4
DM.NumberPulay    5
SolutionMethod    diagon
ElectronicTemperature  25.86  meV
Spin    non-polarized
%block kgrid_Monkhorst_Pack
        81    0     0     0.0
        0    81     0     0.0
        0    0     1     0.0
%endblock kgrid_Monkhorst_Pack
#     System  Relax Control
MD.TypeOfRun FIRE
MD.NumCGsteps  200
MD.VariableCell  .True.
MD.MaxForceTol    0.04 eV/Ang
# Geometric  structure
LatticeConstant 1.0 Ang
AtomicCoordinatesFormat Ang
AtomCoorFormatOut  Ang
%block LatticeVectors
    2.943330000000    0.000000000000    0.000000000000
    -1.864566927979    2.277406784039    0.000000000000
    0.000000000000    0.000000000000    15.000000000000
%endblock LatticeVectors
AtomicCoordinatesFormat NotScaledCartesianAng
%block AtomicCoordinatesAndAtomicSpecies
    0.000000000000    0.000000000000    0.000000000000    1
    0.616437582245    1.301378558603    0.000000000000    1
%endblock AtomicCoordinatesAndAtomicSpecies
************************** End of input data file *****************************

reinit: -----------------------------------------------------------------------
reinit: System Name: Graphene
reinit: -----------------------------------------------------------------------
reinit: System Label: Graphene
reinit: -----------------------------------------------------------------------

initatom: Reading input for the pseudopotentials and atomic orbitals ----------
Species number:   1 Atomic number:    6 Label: C-gga

Ground state valence configuration:   2s02  2p02
Reading pseudopotential information in formatted form from C-gga.psf

Valence configuration for pseudopotential generation:
2s( 2.00) rc: 1.56
2p( 2.00) rc: 1.56
3d( 0.00) rc: 1.56
4f( 0.00) rc: 1.56
For C-gga, standard SIESTA heuristics set lmxkb to 3
 (one more than the basis l, including polarization orbitals).
Use PS.lmax or PS.KBprojectors blocks to override.

<basis_specs>
C-gga                Z=   6    Mass=  12.010        Charge= 0.17977+309
Lmxo=1 Lmxkb= 3    BasisType=split      Semic=F
L=0  Nsemic=0  Cnfigmx=2
          i=1  nzeta=1  polorb=0  (2s)
            splnorm:   0.15000
               vcte:    0.0000
               rinn:    0.0000
               qcoe:    0.0000
               qyuk:    0.0000
               qwid:   0.10000E-01
                rcs:    0.0000
            lambdas:    1.0000
L=1  Nsemic=0  Cnfigmx=2
          i=1  nzeta=1  polorb=1  (2p)
            splnorm:   0.15000
               vcte:    0.0000
               rinn:    0.0000
               qcoe:    0.0000
               qyuk:    0.0000
               qwid:   0.10000E-01
                rcs:    0.0000
            lambdas:    1.0000
L=0  Nkbl=1  erefs: 0.17977+309
L=1  Nkbl=1  erefs: 0.17977+309
L=2  Nkbl=1  erefs: 0.17977+309
L=3  Nkbl=1  erefs: 0.17977+309
</basis_specs>

atom: Called for C-gga                 (Z =   6)

read_vps: Pseudopotential generation method:
read_vps: ATM 3.2.2 Troullier-Martins
Valence charge for ps generation:    4.00000

xc_check: Exchange-correlation functional:
xc_check: GGA Perdew, Burke & Ernzerhof 1996
V l=0 = -2*Zval/r beyond r=  1.5227
V l=1 = -2*Zval/r beyond r=  1.5227
V l=2 = -2*Zval/r beyond r=  1.5227
V l=3 = -2*Zval/r beyond r=  1.5227
All V_l potentials equal beyond r=  1.4851
This should be close to max(r_c) in ps generation
All pots = -2*Zval/r beyond r=  1.5227

VLOCAL1: 99.0% of the norm of Vloc inside     19.682 Ry
VLOCAL1: 99.9% of the norm of Vloc inside     44.856 Ry
atom: Maximum radius for 4*pi*r*r*local-pseudopot. charge    1.79142
atom: Maximum radius for r*vlocal+2*Zval:    1.54183
GHOST: No ghost state for L =  0
GHOST: No ghost state for L =  1
GHOST: No ghost state for L =  2
GHOST: No ghost state for L =  3

KBgen: Kleinman-Bylander projectors:
   l= 0   rc=  1.661951   el= -1.010689   Ekb=  5.289847   kbcos=  0.316429
   l= 1   rc=  1.661951   el= -0.388490   Ekb= -4.102504   kbcos= -0.351025
   l= 2   rc=  1.747182   el=  0.001971   Ekb= -1.006005   kbcos= -0.008530
   l= 3   rc=  1.791422   el=  0.003065   Ekb= -0.421399   kbcos= -0.001072

KBgen: Total number of Kleinman-Bylander projectors:   16
atom: -------------------------------------------------------------------------

atom: SANKEY-TYPE ORBITALS:

SPLIT: Orbitals with angular momentum L= 0

SPLIT: Basis orbitals for state 2s

SPLIT: PAO cut-off radius determined from an
SPLIT: energy shift=  0.020000 Ry

   izeta = 1
                 lambda =    1.000000
                     rc =    4.088342
                 energy =   -0.990050
                kinetic =    0.909804
    potential(screened) =   -1.899854
       potential(ionic) =   -5.513925

SPLIT: Orbitals with angular momentum L= 1

SPLIT: Basis orbitals for state 2p

SPLIT: PAO cut-off radius determined from an
SPLIT: energy shift=  0.020000 Ry

   izeta = 1
                 lambda =    1.000000
                     rc =    4.870301
                 energy =   -0.368677
                kinetic =    2.532104
    potential(screened) =   -2.900781
       potential(ionic) =   -6.401132

POLgen: Perturbative polarization orbital with L=  2

POLgen: Polarization orbital for state 2p

   izeta = 1
                     rc =    4.870301
                 energy =    1.296521
                kinetic =    2.641128
    potential(screened) =   -1.344607
       potential(ionic) =   -4.300412
atom: Total number of Sankey-type orbitals:  9

atm_pop: Valence configuration (for local Pseudopot. screening):
 2s( 2.00)
 2p( 2.00)
Vna: chval, zval:    4.00000   4.00000

Vna:  Cut-off radius for the neutral-atom potential:   4.870301

atom: _________________________________________________________________________

prinput: Basis input ----------------------------------------------------------

PAO.BasisType split

%block ChemicalSpeciesLabel
    1    6 C-gga                   # Species index, atomic number, species label
%endblock ChemicalSpeciesLabel

%block PAO.Basis                 # Define Basis set
C-gga                 2                    # Species label, number of l-shells
 n=2   0   1                         # n, l, Nzeta
   4.088
   1.000
 n=2   1   1 P   1                   # n, l, Nzeta, Polarization, NzetaPol
   4.870
   1.000
%endblock PAO.Basis

prinput: ----------------------------------------------------------------------

Dumping basis to NetCDF file C-gga.ion.nc
coor:   Atomic-coordinates input format  =     Cartesian coordinates
coor:                                          (in Angstroms)

siesta: Atomic coordinates (Bohr) and species
siesta:      0.00000   0.00000   0.00000  1        1
siesta:      1.16490   2.45925   0.00000  1        2

siesta: System type = slab

initatomlists: Number of atoms, orbitals, and projectors:      2    18    32

siesta: ******************** Simulation parameters ****************************
siesta:
siesta: The following are some of the parameters of the simulation.
siesta: A complete list of the parameters used, including default values,
siesta: can be found in file out.fdf
siesta:
redata: Spin configuration                          = none
redata: Number of spin components                   = 1
redata: Time-Reversal Symmetry                      = T
redata: Spin spiral                                 = F
redata: Long output                                 =   F
redata: Number of Atomic Species                    =        1
redata: Charge density info will appear in .RHO file
redata: Write Mulliken Pop.                         = NO
redata: Matel table size (NRTAB)                    =     1024
redata: Mesh Cutoff                                 =   250.0000 Ry
redata: Net charge of the system                    =     0.0000 |e|
redata: Min. number of SCF Iter                     =        0
redata: Max. number of SCF Iter                     =      150
redata: SCF convergence failure will abort job
redata: SCF mix quantity                            = Hamiltonian
redata: Mix DM or H after convergence               =   F
redata: Recompute H after scf cycle                 =   F
redata: Mix DM in first SCF step                    =   T
redata: Write Pulay info on disk                    =   F
redata: New DM Occupancy tolerance                  = 0.000000000001
redata: No kicks to SCF
redata: DM Mixing Weight for Kicks                  =     0.5000
redata: Require Harris convergence for SCF          =   F
redata: Harris energy tolerance for SCF             =     0.000100 eV
redata: Require DM convergence for SCF              =   T
redata: DM tolerance for SCF                        =     0.000100
redata: Require EDM convergence for SCF             =   F
redata: EDM tolerance for SCF                       =     0.001000 eV
redata: Require H convergence for SCF               =   T
redata: Hamiltonian tolerance for SCF               =     0.001000 eV
redata: Require (free) Energy convergence for SCF   =   F
redata: (free) Energy tolerance for SCF             =     0.000100 eV
redata: Using Saved Data (generic)                  =   F
redata: Use continuation files for DM               =   F
redata: Neglect nonoverlap interactions             =   F
redata: Method of Calculation                       = Diagonalization
redata: Electronic Temperature                      =   300.0908 K
redata: Fix the spin of the system                  =   F
redata: Dynamics option                             = FIRE coord. optimization
redata: Variable cell                               =   T
redata: Use continuation files for CG               =   F
redata: Max atomic displ per move                   =     0.1058 Ang
redata: Maximum number of optimization moves        =      200
redata: Force tolerance                             =     0.0400 eV/Ang
[...]
siesta: k-grid: Cutoff (effective) =     7.500 Ang
siesta: k-grid: Supercell and displacements
siesta: k-grid:   81   0   0      0.000
siesta: k-grid:    0  81   0      0.000
siesta: k-grid:    0   0   1      0.000

diag: Algorithm                                     = D&C
diag: Parallel over k                               =   F
diag: Use parallel 2D distribution                  =   F
diag: Parallel block-size                           = 7
diag: Parallel distribution                         =     1 x     3
diag: Used triangular part                          = Lower
diag: Absolute tolerance                            =  0.100E-15
diag: Orthogonalization factor                      =  0.100E-05

superc: Internal auxiliary supercell:     5 x     5 x     1  =      25
superc: Number of atoms, orbitals, and projectors:     50    450    800

ts: **************************************************************
ts: Save H and S matrices                           =    F
ts: Save DM and EDM matrices                        =    F
ts: Only save the overlap matrix S                  =    F
ts: **************************************************************

************************ Begin: TS CHECKS AND WARNINGS ************************
************************ End: TS CHECKS AND WARNINGS **************************

                        Begin FIRE opt. move =      0

[...]

outcell: Unit cell vectors (Ang):
        2.943330    0.000000    0.000000
       -1.864567    2.277407    0.000000
        0.000000    0.000000   15.000000

outcell: Cell vector modules (Ang)   :    2.943330    2.943330   15.000000
outcell: Cell angles (23,13,12) (deg):     90.0000     90.0000    129.3080
outcell: Cell volume (Ang**3)        :    100.5474
<dSpData1D:S at geom step 0
  <sparsity:sparsity for geom step 0
    nrows_g=18 nrows=7 sparsity=6.4167 nnzs=2079, refcount: 7>
  <dData1D:(new from dSpData1D) n=2079, refcount: 1>
refcount: 1>
new_DM -- step:     1
Initializing Density Matrix...
DM filled with atomic data:
<dSpData2D:DM initialized from atoms
  <sparsity:sparsity for geom step 0
    nrows_g=18 nrows=7 sparsity=6.4167 nnzs=2079, refcount: 8>
  <dData2D:DM n=2079 m=1, refcount: 1>
refcount: 1>
No. of atoms with KB's overlaping orbs in proc 0. Max # of overlaps:      11      99
New grid distribution:   1
           1       1:   15    1:   15    1:   25
           2       1:   15    1:   15   26:   50
           3       1:   15    1:   15   51:   75

InitMesh: MESH =    30 x    30 x   150 =      135000
InitMesh: (bp) =    15 x    15 x    75 =       16875
InitMesh: Mesh cutoff (required, used) =   250.000   276.377 Ry
ExtMesh (bp) on 0 =    83 x    83 x    77 =      530453
New grid distribution:   2
           1       1:   15    1:   15    1:    5
           2       1:   15    1:   15    6:   70
           3       1:   15    1:   15   71:   75
New grid distribution:   3
           1       1:   15    1:   15    1:    9
           2       1:   15    1:   15   10:   67
           3       1:   15    1:   15   68:   75
Setting up quadratic distribution...
ExtMesh (bp) on 0 =    83 x    83 x    57 =      392673
PhiOnMesh: Number of (b)points on node 0 =                 1125
PhiOnMesh: nlist on node 0 =                61518

stepf: Fermi-Dirac step function

siesta: Program's energy decomposition (eV):
siesta: Ebs     =      -119.569413
siesta: Eions   =       524.139309
siesta: Ena     =       120.133282
siesta: Ekin    =       209.747530
siesta: Enl     =       -17.848547
siesta: Eso     =         0.000000
siesta: Edftu   =         0.000000
siesta: DEna    =         0.647504
siesta: DUscf   =         1.363083
siesta: DUext   =         0.000000
siesta: Exc     =       -92.879799
siesta: eta*DQ  =         0.000000
siesta: Emadel  =         0.000000
siesta: Emeta   =         0.000000
siesta: Emolmec =         0.000000
siesta: Ekinion =         0.000000
siesta: Eharris =      -303.876416
siesta: Etot    =      -302.976256
siesta: FreeEng =      -302.976256

SCF Convergence by DM+H criterion
max |DM_out - DM_in|         :     0.0000587484
max |H_out - H_in|      (eV) :     0.0008473165
SCF cycle converged after 6 iterations

Using DM_out to compute the final energy and forces
No. of atoms with KB's overlaping orbs in proc 0. Max # of overlaps:      11      99

siesta: E_KS(eV) =             -303.1723

siesta: E_KS - E_eggbox =      -303.1723

siesta: Atomic forces (eV/Ang):
   Tot    0.000846    0.001785    0.000000
   Max   23.560691
   Res   15.051086    sqrt( Sum f_i^2 / 3N )
   Max   23.560691    constrained

Stress tensor Voigt[x,y,z,yz,xz,xy] (kbar):      -80.80     -323.19        0.02       -0.00       -0.00     -148.02
(Free)E + p*V (eV/cell)     -294.7219
Target enthalpy (eV/cell)     -303.1723

siesta: Stress tensor (static) (eV/Ang**3):
        -0.050433   -0.092389   -0.000000
        -0.092389   -0.201714   -0.000000
        -0.000000   -0.000000    0.000014

siesta: Pressure (static):        134.65531228  kBar

siesta: Stress tensor (total) (eV/Ang**3):
        -0.050433   -0.092389   -0.000000
        -0.092389   -0.201714   -0.000000
        -0.000000   -0.000000    0.000014

siesta: Pressure (total):        134.65531228  kBar
FIRE: No of elements:     12

Broyden_optim: No target stress found, assuming hydrostatic MD.TargetPressure.

Broyden_optim: Target stress (kBar)
get_target_stress:        -0.000       0.000       0.000
get_target_stress:         0.000      -0.000       0.000
get_target_stress:         0.000       0.000      -0.000

                        Begin FIRE opt. move =      1
 Kpoints in:         3321 . Kpoints trimmed:         3281

[...]

outcell: Cell vector modules (Ang)   :    2.949495    2.949495   14.999991
outcell: Cell angles (23,13,12) (deg):     90.0000     90.0000    128.8707
outcell: Cell volume (Ang**3)        :    101.5969
<dSpData1D:S at geom step 1
  <sparsity:sparsity for geom step 1
    nrows_g=18 nrows=7 sparsity=6.4167 nnzs=2079, refcount: 7>
  <dData1D:(new from dSpData1D) n=2079, refcount: 1>
refcount: 1>
new_DM -- step:     2
Re-using DM from previous geometries...
Number of DMs in history: 1
 DM extrapolation coefficients:
1   1.00000
New DM after history re-use:
<dSpData2D:SpM extrapolated using coords
  <sparsity:sparsity for geom step 1
    nrows_g=18 nrows=7 sparsity=6.4167 nnzs=2079, refcount: 9>
  <dData2D:(temp array for extrapolation) n=2079 m=1, refcount: 1>
refcount: 1>
Note: For starting DM, Qtot, Tr[D*S] =          8.00000000          7.91910881
No. of atoms with KB's overlaping orbs in proc 0. Max # of overlaps:      11      99
New grid distribution:   1
           1       1:   15    1:   15    1:   25
           2       1:   15    1:   15   26:   50
           3       1:   15    1:   15   51:   75

[...]

        iscf     Eharris(eV)        E_KS(eV)     FreeEng(eV)     dDmax    Ef(eV) dHmax(eV)
   scf:    1     -303.512979     -304.841107     -304.841332  0.347936 -5.888973  1.245513
   scf:    2     -304.862563     -304.966339     -304.966876  0.133259 -6.427884  0.804172
   scf:    3     -305.111649     -305.054995     -305.055877  0.053138 -6.281566  0.171202
   scf:    4     -305.054786     -305.054938     -305.055839  0.001991 -6.403403  0.068025
   scf:    5     -305.056018     -305.055624     -305.056520  0.006095 -6.386091  0.002177
   scf:    6     -305.055592     -305.055612     -305.056509  0.000939 -6.385252  0.008924
   scf:    7     -305.055633     -305.055625     -305.056520  0.000777 -6.386022  0.000145
   scf:    8     -305.055625     -305.055625     -305.056520  0.000018 -6.386006  0.000106

[...]

siesta: Pressure (total):         45.92908464  kBar

[...]

outcell: Cell vector modules (Ang)   :    2.992344    2.967758   14.999828
outcell: Cell angles (23,13,12) (deg):     90.0000     90.0000    127.3741
outcell: Cell volume (Ang**3)        :    105.8580
<dSpData1D:S at geom step 9
  <sparsity:sparsity for geom step 9
    nrows_g=18 nrows=7 sparsity=6.4167 nnzs=2079, refcount: 7>
  <dData1D:(new from dSpData1D) n=2079, refcount: 1>
refcount: 1>
new_DM -- step:    10
Re-using DM from previous geometries...
Number of DMs in history: 1
 DM extrapolation coefficients:
1   1.00000
New DM after history re-use:
<dSpData2D:SpM extrapolated using coords
  <sparsity:sparsity for geom step 9
    nrows_g=18 nrows=7 sparsity=6.4167 nnzs=2079, refcount: 9>
  <dData2D:(temp array for extrapolation) n=2079 m=1, refcount: 1>
refcount: 1>
No. of atoms with KB's overlaping orbs in proc 0. Max # of overlaps:      11      99
New grid distribution:   1
           1       1:   15    1:   15    1:   25
           2       1:   15    1:   15   26:   50
           3       1:   15    1:   15   51:   75

[...]

outcell: Cell vector modules (Ang)   :    2.660832    2.603706   14.998930
outcell: Cell angles (23,13,12) (deg):     90.0000     90.0000    123.5805
outcell: Cell volume (Ang**3)        :     86.5709
<dSpData1D:S at geom step 48
  <sparsity:sparsity for geom step 48
    nrows_g=18 nrows=7 sparsity=7.1944 nnzs=2331, refcount: 7>
  <dData1D:(new from dSpData1D) n=2331, refcount: 1>
refcount: 1>
new_DM -- step:    49
Re-using DM from previous geometries...
Number of DMs in history: 1
 DM extrapolation coefficients:
1   1.00000
New DM after history re-use:
<dSpData2D:SpM extrapolated using coords
  <sparsity:sparsity for geom step 48
    nrows_g=18 nrows=7 sparsity=7.1944 nnzs=2331, refcount: 9>
  <dData2D:(temp array for extrapolation) n=2331 m=1, refcount: 1>
refcount: 1>
Note: For starting DM, Qtot, Tr[D*S] =          8.00000000          8.01755863
No. of atoms with KB's overlaping orbs in proc 0. Max # of overlaps:      13     117
New grid distribution:   1
           1       1:   12    1:   12    1:   24
           2       1:   12    1:   12   25:   48
           3       1:   12    1:   12   49:   72

[...]

                        Begin FIRE opt. move =     93
 Kpoints in:         3321 . Kpoints trimmed:         3281

siesta: k-grid: Number of k-points =  3281
siesta: k-grid: Cutoff (effective) =     7.499 Ang
siesta: k-grid: Supercell and displacements
siesta: k-grid:   81   0   0      0.000
siesta: k-grid:    0  81   0      0.000
siesta: k-grid:    0   0   1      0.000

superc: Internal auxiliary supercell:     7 x     5 x     1  =      35
superc: Number of atoms, orbitals, and projectors:     70    630   1120

[...]

outcell: Cell vector modules (Ang)   :    2.496672    2.493345   14.998152
outcell: Cell angles (23,13,12) (deg):     90.0000     90.0000    119.9892
outcell: Cell volume (Ang**3)        :     80.8648
<dSpData1D:S at geom step 93
  <sparsity:sparsity for geom step 93
    nrows_g=18 nrows=7 sparsity=7.1944 nnzs=2331, refcount: 7>
  <dData1D:(new from dSpData1D) n=2331, refcount: 1>
refcount: 1>
new_DM -- step:    94
Re-using DM from previous geometries...
Number of DMs in history: 1
 DM extrapolation coefficients:
1   1.00000
New DM after history re-use:
<dSpData2D:SpM extrapolated using coords
  <sparsity:sparsity for geom step 93
    nrows_g=18 nrows=7 sparsity=7.1944 nnzs=2331, refcount: 9>
  <dData2D:(temp array for extrapolation) n=2331 m=1, refcount: 1>
refcount: 1>
No. of atoms with KB's overlaping orbs in proc 0. Max # of overlaps:      13     117
New grid distribution:   1
           1       1:   12    1:   12    1:   24
           2       1:   12    1:   12   25:   48
           3       1:   12    1:   12   49:   72

InitMesh: MESH =    24 x    24 x   144 =       82944
InitMesh: (bp) =    12 x    12 x    72 =       10368
InitMesh: Mesh cutoff (required, used) =   250.000   254.772 Ry
ExtMesh (bp) on 0 =    72 x    72 x    76 =      393984
New grid distribution:   2
           1       1:   12    1:   12    1:    5
           2       1:   12    1:   12    6:   67
           3       1:   12    1:   12   68:   72
New grid distribution:   3
           1       1:   12    1:   12    1:    8
           2       1:   12    1:   12    9:   64
           3       1:   12    1:   12   65:   72
Setting up quadratic distribution...
ExtMesh (bp) on 0 =    72 x    72 x    57 =      295488
PhiOnMesh: Number of (b)points on node 0 =                  720
PhiOnMesh: nlist on node 0 =                49046

        iscf     Eharris(eV)        E_KS(eV)     FreeEng(eV)     dDmax    Ef(eV) dHmax(eV)
   scf:    1     -308.103018     -308.093283     -308.093305  0.001166 -5.500687  0.005222
   scf:    2     -308.093283     -308.093283     -308.093306  0.000173 -5.503967  0.001214
   scf:    3     -308.093283     -308.093283     -308.093306  0.000045 -5.503500  0.000383

SCF Convergence by DM+H criterion
max |DM_out - DM_in|         :     0.0000446281
max |H_out - H_in|      (eV) :     0.0003825460
SCF cycle converged after 3 iterations

Using DM_out to compute the final energy and forces
No. of atoms with KB's overlaping orbs in proc 0. Max # of overlaps:      13     117

siesta: E_KS(eV) =             -308.0933

siesta: Atomic forces (eV/Ang):
   Tot    0.000514   -0.019619   -0.000000
   Max    0.015195
   Res    0.006475    sqrt( Sum f_i^2 / 3N )
   Max    0.015195    constrained

Stress tensor Voigt[x,y,z,yz,xz,xy] (kbar):       -7.32       -8.94        0.03       -0.00       -0.00        1.12
(Free)E + p*V (eV/cell)     -307.8202
Target enthalpy (eV/cell)     -308.0933

siesta: Stress tensor (static) (eV/Ang**3):
        -0.004568    0.000697   -0.000000
         0.000697   -0.005579    0.000000
        -0.000000   -0.000000    0.000017

siesta: Pressure (static):          5.41025960  kBar

siesta: Stress tensor (total) (eV/Ang**3):
        -0.004568    0.000697   -0.000000
         0.000697   -0.005579    0.000000
        -0.000000   -0.000000    0.000017

siesta: Pressure (total):          5.41025960  kBar

outcoor: Relaxed atomic coordinates (Ang):
   -0.28736650    0.23396886   -0.00000000   1       1  C-gga
    0.89847545    1.05297421   -0.00000000   1       2  C-gga

outcell: Unit cell vectors (Ang):
        2.488327    0.203957    0.000000
       -1.418515    2.050508    0.000000
        0.000000    0.000000   14.998152

outcell: Cell vector modules (Ang)   :    2.496672    2.493345   14.998152
outcell: Cell angles (23,13,12) (deg):     90.0000     90.0000    119.9892
outcell: Cell volume (Ang**3)        :     80.8648

siesta: Program's energy decomposition (eV):
siesta: Ebs     =      -117.668514
siesta: Eions   =       524.139309
siesta: Ena     =       116.364284
siesta: Ekin    =       204.740738
siesta: Enl     =       -18.194466
siesta: Eso     =         0.000000
siesta: Edftu   =         0.000000
siesta: DEna    =         5.233631
siesta: DUscf   =         0.306229
siesta: DUext   =         0.000000
siesta: Exc     =       -92.404390
siesta: eta*DQ  =         0.000000
siesta: Emadel  =         0.000000
siesta: Emeta   =         0.000000
siesta: Emolmec =         0.000000
siesta: Ekinion =         0.000000
siesta: Eharris =      -308.093283
siesta: Etot    =      -308.093283
siesta: FreeEng =      -308.093306

siesta: Final energy (eV):
siesta:  Band Struct. =    -117.668514
siesta:       Kinetic =     204.740738
siesta:       Hartree =    1048.936734
siesta:       Edftu   =       0.000000
siesta:       Eso     =       0.000000
siesta:    Ext. field =       0.000000
siesta:   Exch.-corr. =     -92.404390
siesta:  Ion-electron =   -2299.911421
siesta:       Ion-ion =     830.545055
siesta:       Ekinion =       0.000000
siesta:         Total =    -308.093283
siesta:         Fermi =      -5.503500

siesta: Stress tensor (static) (eV/Ang**3):
siesta:    -0.004568    0.000697   -0.000000
siesta:     0.000697   -0.005579    0.000000
siesta:    -0.000000   -0.000000    0.000017

siesta: Constrained stress tensor (static) (eV/Ang**3):
siesta:    -0.004568    0.000697   -0.000000
siesta:     0.000697   -0.005579   -0.000000
siesta:    -0.000000   -0.000000    0.000017

siesta: Cell volume =         80.864798 Ang**3

siesta: Pressure (static):
siesta:                Solid            Molecule  Units
siesta:           0.00003678          0.00003654  Ry/Bohr**3
siesta:           0.00337678          0.00335521  eV/Ang**3
siesta:           5.41025960          5.37569785  kBar
(Free)E+ p_basis*V_orbitals  =        -307.629368
(Free)Eharris+ p_basis*V_orbitals  =        -307.629368

siesta: Electric dipole (a.u.)  =   -0.000000   -0.000000    0.000020
siesta: Electric dipole (Debye) =   -0.000000   -0.000000    0.000050

cite: Please see "Graphene.bib" for an exhaustive BiBTeX file.
cite: Please clearly indicate Siesta version in published work: 4.1.5
cite: This calculation has made use of the following articles
cite: which are encouraged to be cited in a published work.
        Primary SIESTA paper
          DOI: www.doi.org/10.1088/0953-8984/14/11/302

>> End of run:   1-NOV-2022  13:47:25
Job completed